&CONTROL
  title = "128H2O/air-SCAN",
  calculation = 'cp',
  restart_mode = "restart",
  !restart_mode = "from_scratch",
  prefix = "H2O",
  pseudo_dir = './',
  outdir = './out/',
  nstep  = 100000,
  iprint = 5,
  isave  = 1000,
  dt = 2.D0,
! exx_wf = .TRUE.,
  tprnfor=.TRUE.,
  max_seconds = 1500,
/
&SYSTEM
  ibrav     =  6,
  celldm(1) =  23.517; 
  celldm(3) =  4.0177889989; 
  nat       =  384,
  ntyp      =  2,
  ecutwfc   =  85.0D0,
  tot_charge =  0,
  nspin = 1,
  input_dft = 'scan',
/
&ELECTRONS
emass             = 100.D0
emass_cutoff      = 25.D0
electron_dynamics = "verlet",
ortho_max         = 800,
electron_maxstep      = 500,
/
&IONS
    ion_dynamics     = "verlet",
    ion_temperature = 'nose',
    fnosep           = 60,
	tempw            = 330.0,
	nhptyp           = 0,  ! single NH chain
	ndega            = -3,
    ion_radius(1)= 1.4
    ion_radius(2)= 1.4
/
ATOMIC_SPECIES
O     15.9994 O_HSCV_PBE-1.0.UPF 
H     2.01588 H_HSCV_PBE-1.0.UPF 
ATOMIC_POSITIONS angstrom
 O    0.0000000000000000        0.0000000000000000        0.0000000000000000     
 H   0.56940571024461661      -0.84445411616399468       0.17024485787649191     
 H   -1.0298671624013451      -0.19778683446228484       -1.2501190996358602E-002
 O    2.9246917638078074       -4.4385555687651106       -24.256483047848533     
 H    3.4425210949731806       -5.2431424231015455       -23.992425338231552     
 H    3.3891122473147917       -4.0470599090958359       -25.095151807669485     
 O    2.4440183622914304        2.1921627427542134       -13.918198477945731     
 H    3.0282473961305527        2.9941706130751129       -13.582806808924158     
 H    3.1484439606102441        1.6322435215745728       -14.446674000774427     
 O   -2.8850378573223807      -0.29746036535506093       -21.148087955210237     
 H   -3.2289496173886292       0.38680885156114542       -21.880500588275041     
 H   -1.8505232318570179      -0.11262505177976934       -21.134210087677314     
 O   -2.4901499119313115        4.9277489977351507       -8.5346073420274955     
 H   -2.0215285115340862        4.1800043026516249       -8.9234251324361153     
 H   -3.0869501938859614        5.3433206593931004       -9.2786798913302739     
 O   -5.6735447948462721       -2.6407606829482759       -1.8927103242765124     
 H   -4.8298797978136747       -3.1756079057596551       -1.6586368292576523     
 H   -6.4072593376591698       -3.2081408192171068       -2.4282348975258827     
 O   -4.4258098637987331      -0.23612973407051641        1.8983765089665248     
 H   -4.7707672484903938       -3.6098105472149200E-002   2.8359470072606072     
 H   -5.1166130480609908       0.21636600956966134        1.2770932319730868     
 O    2.8298130760422779        1.4055006949184659       -18.928710115438129     
 H    2.0642394467991494        1.3072375210656979       -18.227274037828128     
 H    2.6839418294526212        2.1900511978375974       -19.587942322528132     
 O   0.91885413934876681        2.4736178587031752       -1.0281173535189421     
 H   0.44186629079219131        1.6217905211984665      -0.61494977834894726     
 H   0.36026473695365269        3.3223790964629707      -0.73471445644401179     
 O  -0.11207111864367647       -4.8700980814084573       -24.072052639312716     
 H  -0.73460308980839528       -4.0434301461700812       -24.056874331933003     
 H   0.89238728082051466       -4.7347677888202782       -24.018402012110364     
 O   -1.2218852228465380        3.7338604071817230       -11.256698782295842     
 H   -1.0934095315093089        2.9872643793892166       -11.902806078160285     
 H  -0.38875176321039362        4.3319239665682403       -11.364893578720414     
 O   -4.5732310642508835       -3.7208067660510764       -6.5448001053245406     
 H   -4.5923430643167507       -4.4305830792079988       -5.8611780450615925     
 H   -5.0291278813008162       -2.9281859593478217       -6.0339051146657887     
 O   -1.0477620976034103       -5.9984069769245281       -21.868160175494801     
 H  -0.55249986298636600       -5.7924190200518382       -22.795976371998883     
 H   -2.0240854509943347       -6.1525176981890439       -22.077098944854370     
 O   -2.7268578400988019       -1.5414352071049819       0.21809664843911492     
 H   -2.8515509353336910       -1.4355135082924591      -0.81955908945994338     
 H   -3.2941526193754456      -0.88901390089161225       0.75118480508823282     
 O   -2.1435218492778034       0.97375905474363833       -6.4520446319092013     
 H   -2.4585221707151632       0.69033047139140535       -7.3977315547615170     
 H   -2.1903629198151862        1.9429041908522038       -6.2297918442025821     
 O   0.17678537875639222        3.8907829455333030       -5.4793809577154153     
 H  -0.80308795293892388        4.2013770453786634       -5.4744187001511069     
 H   0.26838108150949580        3.0634152281877078       -4.9091082325985731     
 O   -4.0786836627752265       -2.6533457201010435       -16.650723389516514     
 H   -4.0749647017031947       -2.0514508069456667       -15.849158246439359     
 H   -3.6878112607538824       -2.0722530709252993       -17.436078754632106     
 O    1.9382992732381865       -4.2561607778129442       -15.528268322624179     
 H    2.8043405772035328       -4.0308186633971630       -14.937747219002022     
 H    1.9261019257346987       -5.2584618487658190       -15.425045378452502     
 O    2.1002527872771424       -2.1324848748029126      -0.28503250885486509     
 H    3.0131461778482986       -1.7701906502552376        7.5720921668906982E-002
 H    2.2983940175994810       -2.2944334579785206       -1.2724299007807662     
 O    4.9884846957775295       -3.5835666270741271       -20.290538319218978     
 H    4.9525834404047941       -2.5575563705297171       -20.254904181502724     
 H    4.6403493129284001       -3.8192940990404054       -19.380277774254473     
 O    5.6220610084721585       -5.7253731673746699E-002  -7.9207021963369311     
 H    4.8006946651490239       0.44511495071500917       -7.4360267927437924     
 H    6.3871588094569063       0.61604850408453871       -7.9513378861132420     
 O    2.6800211483398613       -5.7707999999346526       -19.293609702618753     
 H    3.0799303328500827       -5.1993628415481368       -18.572704126714918     
 H    3.3526436619540760       -6.4316844798405981       -19.642428069915201     
 O   -2.3356011627553244       -3.6795703528363859       -20.745315802030433     
 H   -1.6326056532095095       -3.0181061116301322       -20.531726143759080     
 H   -1.8510650741396049       -4.5571590234403914       -20.820213837154448     
 O    2.4246831436140752       -5.2341751494793769       -2.6185968930326791     
 H    1.6060075188236524       -4.9737177600317892       -2.0734542263332205     
 H    2.9458371545279078       -5.9884458724826430       -2.0829416501884701     
 O    1.3687728919323803      -0.13214714014057449       -8.6933573884531654     
 H    1.7561822107746821      -0.87793652260427280       -8.1315642550206029     
 H    1.1488460559010036       0.70023031761360244       -8.0700290730324369     
 O    3.8099730760355470        5.6300913738104725      -0.60361839571413256     
 H    3.7248249485500082        6.2831684881317642       0.24542271170521346     
 H    4.8022346933736628        5.5432152790041442       -1.0223079682856930     
 O  -0.95778623128694562      -0.14008857953803044       -4.2883900035667288     
 H  -0.14897654911509051       0.50475075187488017       -4.1448185287566872     
 H   -1.4896849234097331        9.4955333156519828E-002  -5.1537865702235450     
 O   0.85201388694250113        5.1174874732152418       -11.797980257842486     
 H    1.0171746294706878        6.0607672643271329       -11.475198716187556     
 H    1.6689492850322836        4.8609982023566403       -12.386964223797689     
 O    5.3656949237840479E-002  -2.2158461094397168       -20.826934742174963     
 H   0.17713284007530206       -1.2154862672873037       -21.100781198965525     
 H   0.88655262192903450       -2.5973917414213332       -21.208700994127099     
 O    5.1805260860999738        4.9703650180312593       -22.518982799344869     
 H    5.1769223358276690        4.8724612583718852       -21.509323619438106     
 H    4.8954080065326195        4.0164100814018866       -22.738337900776706     
 O    3.5155043330851896        4.5225659416084696       -12.516371673321110     
 H    3.9911290578477718        5.0720014025411473       -13.237830317779594     
 H    4.2397796860901025        4.3617327632764571       -11.837096400343123     
 O   -5.7749256084898164        2.7614324848867895       -11.792265276322398     
 H   -5.6024796677978870        3.4826828873189655       -11.057171936635138     
 H   -4.9675985349488911        2.1336186343425467       -11.823723143145354     
 O   -3.4412047519672484        5.3105014802724213       -11.103530739191790     
 H   -3.3163577411974003        6.1992231463409979       -11.614132168833107     
 H   -2.7300671080352785        4.6358154510098473       -11.325515156637467     
 O   -3.1420751647936136       0.13404996508184297       -15.010516825991507     
 H   -2.6654448491488267       0.27388909805556239       -15.926922903119848     
 H   -2.7304111219353508      -0.78426391387915828       -14.591980934574448     
 O    4.9359118528866546        4.7529651963189536       -19.752778199687995     
 H    5.2567369978276162        3.8678540920349747       -19.342991393500903     
 H    5.5305504591813985        5.5098899158133179       -19.372159842712644     
 O    1.2541707348627540        2.5342756762295409       -7.6981088002668052     
 H   0.75712235723979404        2.9822445061199687       -6.9564766268089571     
 H    1.9831808731640024        3.0792922457978413       -8.1602704818078351     
 O   -2.9299018320887456        3.0267452335424210       -15.419616681823658     
 H   -2.2698075085286433        3.4660330460937132       -14.781522440732099     
 H   -3.0968156194496714        2.0369967701919762       -15.217761800233021     
 O    4.8498983321916995       0.54643744431410823       -12.209633644969667     
 H    4.1461564897186207       0.66359504283752813       -11.507797957082740     
 H    5.6323332398729136        1.2007312269915644       -12.046832807422826     
 O    4.8682664699385754       -3.9089411452814318       -3.3070517577649277     
 H    4.0289865562997562       -4.5131685331885336       -3.2127502879176824     
 H    5.5864089493155191       -4.4376012854260622       -3.8426737117963548     
 O   0.72907039153406572        1.9163665150645883       -3.7659894050675593     
 H    1.7297161216854064        1.7688768936048405       -3.8894636775864040     
 H   0.61377780624209066        2.1349937832168919       -2.7953511663360153     
 O   -3.7416111916028783        5.8675151062084154       -20.443102313705779     
 H   -2.9941226796425937        5.9575838032671307       -19.821683928984303     
 H   -4.5907124014237795        6.1553119733004280       -19.899836829236154     
 O    5.7618948305424169        6.1092787294028490       -13.601448029748290     
 H    6.0548278323670104        6.4572504666933490       -12.685521953901944     
 H    6.5178086455998994        5.5896269669444649       -14.070241953477991     
 O    4.8319210761629208        5.7403907716640177       -8.4936706225432133     
 H    4.8412564498553010        5.8646393962770524       -7.4668681052908337     
 H    5.0198753004793701        6.6947363254112666       -8.8987529666975966     
 O   -3.8086595262087606       -2.1365386701599078       -9.0807560029092382     
 H   -4.5541035675333177       -1.6666099880050496       -9.6240917329501450     
 H   -4.2146586501015868       -2.6529978645480270       -8.3205695837840725     
 O   -3.7203393189551051        1.0458796563683563       -12.178072370172439     
 H   -3.7382103148391508       0.46071674877160262       -12.991431687742134     
 H   -2.6733430763705215        1.1453745069966317       -11.993252951915274     
 O   -5.7272164887568380       -5.5733395295714416       -18.869801916804434     
 H   -5.8333331649403490       -5.4545408130370490       -17.788771950657569     
 H   -6.1937322632347076       -4.7799607737909824       -19.288584643622421     
 O  -0.39346509609556080      -0.75623875497059601       -10.464353043767661     
 H   0.19204752766879807      -0.43523673291667819       -11.291328587960777     
 H   0.24512885284697461      -0.79005804735068352       -9.6243384562815173     
 O   -1.7441787920833960        2.1116402488481611       -18.329266072159673     
 H   -2.6068819464952639        2.5881420394373862       -17.958840315117591     
 H   -1.2152561150344496        2.7746251689810180       -18.897868735888153     
 O   -2.8157052423642241       0.46177579853164730       -8.9020317123836570     
 H   -1.9135930536726704       0.47323556482554352       -9.3489530132050085     
 H   -3.1834368978210037      -0.46911168100811551       -9.1371844029462608     
 O    3.9057274982613421        2.5732392016116705       -22.658604860829389     
 H    4.5453276444636970        1.7858912491793433       -22.449300653290280     
 H    3.3119234026235631        2.2643182224877734       -23.494624454174488     
 O    1.8449874094216767       -2.5679368706931314       -6.8923081772704577     
 H    1.3628707890200786       -3.4884390834119330       -7.0455577431355447     
 H    2.8423485530170680       -2.7016625262705816       -6.9727096238206592     
 O    3.0596394877395170        1.0908645494238982       -10.457762430976828     
 H    2.8183819491637330        2.0787191994150760       -10.384189477653448     
 H    2.6360028749100337       0.58729630857973802       -9.6180213212059051     
 O   -4.7368399361646141        2.7628116483625149       -5.3361163622454839     
 H   -4.9475936573675554        1.8321183715992646       -4.9543061180075867     
 H   -4.7765704744991950        2.6800164059657803       -6.3654113988749312     
 O    5.3920389484850517        7.3987062958934757E-002  -22.325892519275154     
 H    5.5544491224316346      -0.74428723361018001       -22.882044419772136     
 H    5.7260637074411989      -0.17909513286058143       -21.403249218323502     
 O  -0.86337352388218846        5.1490539301175318       -14.029231362555594     
 H  -0.29909335392584779        5.0984979889830484       -13.197841600192735     
 H  -0.28938339707096361        4.8444429364874608       -14.829109873635160     
 O    1.5303466384457849       0.17302781580519166       -12.486502042826114     
 H    1.9387256969359825       0.93744015010906168       -13.096958862168428     
 H    2.3155257785679382      -0.27938683713952983       -11.956855235975661     
 O    4.2866748280952720       -4.0289955819003040       -14.061139707183482     
 H    4.8140823751194830       -4.9331290841524265       -14.035846915106484     
 H    5.0142349495920087       -3.2858195080537342       -14.104250586835724     
 O  -0.46165090640209172       -2.1437831590721146       -18.176341780256106     
 H   -7.2065690992801024E-002  -2.3710853649135402       -19.148046420273023     
 H  -0.37093832338819510       -2.9634379667393489       -17.542826256001760     
 O   -5.8413426123910703       0.53660301556685397       -15.982547333732271     
 H   -5.7667584221610007       0.30379783915759617       -16.987415639148274     
 H   -4.8904772771647842       0.32206446052154547       -15.641955960226356     
 O   -2.1478555051543538       -4.9735094999112235       -14.804686916292614     
 H   -1.7134183735194313       -5.9345618380592029       -14.608780449963458     
 H   -1.6139877880302720       -4.6506372675130265       -15.643330610216713     
 O    3.7348281666111660       -4.2296226539845279        1.0365871181151576     
 H    4.3257504864478591       -3.5359160761128123       0.56130348040223765     
 H    2.9359435365541628       -3.7150488446101022        1.3628268565191632     
 O   -5.3691007742390582        4.2610769147357388       -9.5460724099972065     
 H   -4.6979038505751305        4.8760034051010592       -10.041200599454680     
 H   -6.1057662328354070        4.9594021770104533       -9.2720083078790942     
 O    3.4572627991825868       -3.7562240505168205       -11.374608722874905     
 H    3.6344561951280525       -3.9521524990677790       -12.405029995111288     
 H    2.4534153187844367       -3.9065896390380601       -11.311104769694911     
 O   -1.9748214731437770       -1.9758519534597383       -14.087487834384332     
 H   -1.0153491187899135       -1.9488840142659711       -13.682809393529267     
 H   -2.2096247382125682       -2.9235708589391720       -14.225923479855584     
 O    5.8427957152136685       -4.8398534480028061       -22.607853665781750     
 H    5.5490895015082629       -4.5846427626062507       -21.630117846322314     
 H    5.5587966876201165       -5.8430097971497403       -22.700187904822680     
 O    2.8379180122726666E-002  -5.9055821440661660       -19.297349927913363     
 H  -0.29113921290661438       -5.9363172316209472       -20.288885058509635     
 H    1.0775945489424572       -5.7327269057483790       -19.339656909939581     
 O   -5.7140496709544379       -4.6249239497454653       -11.680979997315642     
 H   -4.7372810795105806       -4.4173477687938956       -12.014682134888700     
 H   -5.9171780451504787       -4.1245650316363225       -10.845024322512039     
 O   -2.0597390836899088       -2.9300237975654611       -23.455373418794270     
 H   -2.4525002081427019       -3.3328494008085485       -22.636974190710134     
 H   -1.5578072654262130       -2.1185860809473809       -23.120248291748688     
 O    3.4101647199217453       0.79159641642078071       0.48145864428541429     
 H    3.3649646584965467        1.5399905090285131      -0.26007455586230144     
 H    2.4510520792110313       0.54105821254193387       0.78899075039180389     
 O   -3.6592890332668588       -4.0728243777239186       0.79045857046983059     
 H   -3.4603488847422099       -3.0735639105986081       0.89052710871858309     
 H   -3.8104138013759155       -4.5851104467170245        1.6695118741727555     
 O   0.51906694677117571       -2.2365333641932992       -13.374489989811661     
 H   0.79629870318569829       -2.3181997474192357       -14.340432562719911     
 H    1.0504938380513522       -1.4792314348055058       -12.966041485083245     
 O    2.1056308167028419        5.4539075278339340       -15.758720825215830     
 H    3.0294023981789735        5.2310060187722343       -16.153120944968865     
 H    1.6657039164489049        4.5186018208463992       -15.882235194740476     
 O    3.5938795723461823        1.0865186806458595       -6.7031963698499233     
 H    2.8770857655505395        1.7966624566170708       -6.8895880552580948     
 H    3.6187043185292893       0.81976968699881070       -5.7239104779468306     
 O   -2.6487948293000869      -0.72768585023897714       -17.679786337710084     
 H   -2.7741517154511470      -0.30392969316586260       -18.560575205705316     
 H   -1.7797982434589059       -1.2997177025356095       -17.847255937846786     
 O    5.5698428452798439       -2.1620706804557273       -23.673088296657319     
 H    6.4999087699511477       -1.7737896210670030       -24.050536751857788     
 H    5.7115045228298271       -3.1003579173841302       -23.315021021569819     
 O   -1.6585121281278958       -3.0860834934629082       -10.363969724376933     
 H   -2.4673268656642904       -2.8022369167529781       -9.6926397961341237     
 H   -1.1441909817208966       -2.2438454936237875       -10.626890106890922     
 O   -4.2701718828406001        1.3748562381574345       -22.801829413360057     
 H   -5.2573833524113951        1.1026120520556617       -22.779354058776004     
 H   -4.1160108616436730        2.3828423760626620       -22.686796319518997     
 O    2.1517875849482628        6.0012601980948403       -5.3402178499109283     
 H    1.5618602991893873        5.0933864523202317       -5.4997254228313519     
 H    2.1875227702501014        6.3527612307910175       -4.3725284545130751     
 O    5.9619878037761396       0.93131181506768002       0.57382193120676916     
 H    4.9251467239412392       0.77569098475929366       0.66172582462107243     
 H    6.2203168199467029        1.5212073406948221      -0.16833168532395248     
 O   0.36235024322246190        3.1156967589687810       -15.760845060193855     
 H   0.14115575380606060        2.3776971088319598       -16.464255064951008     
 H   0.78653896981279559        2.6715164826739723       -14.917802797028536     
 O    5.0154990276279321       -1.8222296450502213       0.32682872275149322     
 H    5.1493693272154317      -0.85288595875157114       0.42700807639674210     
 H    5.6619340468202353       -2.1477750482682580      -0.39776817400647779     
 O  -0.38973513029217344        3.8715688972005466       -19.962357477654141     
 H   0.55968234316349452        3.7601812647608739       -20.242740152626368     
 H  -0.40166374171626273        4.7483506805978948       -19.408703765785166     
 O    6.0733659660064134        2.9167969764585635       -14.440405041063565     
 H    6.3411904487467012        2.9030650006658476       -13.404690932777754     
 H    6.4358397091219643        2.0669340434897876       -14.897102958177012     
 O   0.89151324660642572       -5.1284159429401868       -7.4103194385627198     
 H  -0.12506908604278166       -5.3175894847903393       -7.4186639931911724     
 H    1.3070824502655043       -5.5950168530177820       -6.6124998112586759     
 O   -4.1901367242145824        5.5473155320737462       -15.282568778592237     
 H   -3.8094061217043489        4.6008741537629305       -15.288292920682490     
 H   -3.3724451205185844        6.0250354968826905       -15.001149860651889     
 O    6.0331348315287983        4.1507663083190778       -4.0820214351934787     
 H    5.7779632512313128        4.8855154807557000       -4.7666312259760062     
 H    6.6991292739097901        3.5295416124814381       -4.5779571068478990     
 O   -5.7342215512168622       -4.9567663269595812       -16.387204391719678     
 H   -5.3866575825102530       -5.7889854409599906       -15.896048760179941     
 H   -5.1392996961690471       -4.1452769928382054       -16.262791946440736     
 O  -0.47189777088072304       -4.4804812605059539       -16.934923251123355     
 H   0.34711494661619469       -4.4763293548513872       -16.308560340427267     
 H  -0.42912194773058587       -5.2603690477429836       -17.611166057256778     
 O  -0.99105687712022217        1.2518934250149414       -12.763455441476413     
 H   -1.3428333364632437       0.82172003097151958       -13.620781996525823     
 H   -2.5029303544975789E-002  0.98571888658344164       -12.503573254461042     
 O   -4.3915805787914550        4.0858943905824034       -22.517360959819932     
 H   -5.1473887180321256        4.5029968043863846       -23.027256692136774     
 H   -4.1564975099431720        4.7001477787019965       -21.698568721737679     
 O    5.3432993535451487        2.1449577885812801       -2.3722232283928779     
 H    4.6183924466626536        2.6098961048400326       -1.8181593065427446     
 H    5.6572460043409905        2.9429299345886761       -2.9512651810677131     
 O   -5.2043739394438902       -5.4324854403054061       -4.1739897299461983     
 H   -5.1686111086099018       -6.4043267326122688       -3.8742140650205972     
 H   -4.5485897284099224       -4.9437774098965974       -3.5903800940394710     
 O  -0.83103510113483026        5.8530936444864210       -2.8646386141265854     
 H   -1.4279870760014148        5.5252739374232078       -3.6226398210470503     
 H  -0.60977393243521760        6.8464605859741852       -3.0655898324782882     
 O   -2.3174872836979930       -5.4903178307708629       -6.8090958912581616     
 H   -2.7725818793865358       -4.5797966153563152       -6.9492386851184147     
 H   -2.4011834101911660       -6.2351258069880657       -7.5880443693253277     
 O    3.9879108297871966        7.2764957690054644E-002  -14.670947044823141     
 H    4.7709759438835491        6.3666670505540424E-002  -15.303278772258516     
 H    4.3023889209903032       0.34203422085832358       -13.750854054190892     
 O    4.2299850412418536       -4.0463497255005620       -17.592160264545090     
 H    3.5085562247088262       -3.9986042444769510       -16.903883273573971     
 H    5.0094179187966077       -4.4858659660178830       -17.089156249385098     
 O    2.6980011471567593      -0.29045729822185251       -23.620166905693775     
 H    2.6975640509873244       -1.2623115893768357       -23.989792431247025     
 H    3.5330594619115487       -1.5267918231501199E-002  -23.086076327672583     
 O    2.7084599898406623       -3.1927528171440613       -21.553672288781378     
 H    2.5519630649820542       -3.5467012545980268       -22.515363575244738     
 H    3.6130878701654439       -3.5709054137015173       -21.248817289268487     
 O   -5.9286904190136340       -1.4050991125884664       -5.8357978076485875     
 H   -5.9299171868068328      -0.64675858036355294       -5.1108084525984214     
 H   -6.4277062449663447       -1.0589923216947668       -6.6603993876322765     
 O   0.49595471888424925       0.71261248438564451       -17.591717963569774     
 H   0.45908185962023040      -0.27409860202543257       -17.796554503384488     
 H  -0.42816983368924610        1.0242748012375671       -17.891845001921382     
 O   -1.3526830630690583        2.3104597188572740       -22.121633281656095     
 H   -1.1556241928582978        3.0112665780291650       -21.401569035364130     
 H   -2.1762294348785787        2.6734790589915036       -22.644494602892902     
 O   -3.3772826195848502       -4.2871224054633110       -1.9771341919665240     
 H   -3.3213333683746527       -4.2124570802720882      -0.97340242440871450     
 H   -2.5581194965885672       -3.7866656013497071       -2.3409802276758729     
 O    4.7010430493050634        6.0901692625165929       -6.0329656675734267     
 H    4.8861701024221205        7.1077401242319098       -6.0774161849700352     
 H    3.6799421239466810        5.9935718625017778       -5.8445795680076529     
 O    4.4825674078479665        4.2608301508802526       -16.372516905994583     
 H    4.5772196243043766        3.5504429066423242       -17.109394883739732     
 H    5.0904455619297551        4.0609278063130816       -15.586892153794212     
 O   0.30814317699713811       0.22821418649622416       -21.601713879125789     
 H   0.96978325498564288       0.18997893779798147       -22.386388475001795     
 H  -0.24269996958080498        1.0799697461213427       -21.684567851143409     
 O   -4.4503971133967468       -1.2423987374704026       -24.270167472979999     
 H   -3.6721255707542610       -1.8948694547253453       -24.417592206387461     
 H   -4.1705293465362345      -0.25669519840333521       -24.266868670035088     
 O   -6.1925333730915213        5.1138414773327412       -1.5406560450663260     
 H   -6.2771062648086655        4.9464190646272215       -2.5362861967028021     
 H   -5.2524430795341317        5.1191453246378416       -1.1542640040356940     
 O   -5.6672451481903927       0.19672223809482148       -3.5187706878131308     
 H   -6.0996502181320658       0.90289273394384395       -2.8623581587160576     
 H   -5.8627966635864155      -0.72876991741874519       -3.0684742043139224     
 O    3.1475435666516205        3.9513209474157520       -9.1630607538771827     
 H    3.8324114888705765        4.6915569124166723       -8.9102837421995318     
 H    2.5739945131940658        4.3928728378932931       -9.8659001263646182     
 O   -2.3448879981325774        4.9734071914241298       -4.9586963896585097     
 H   -2.2919532603948909        5.7164034642699804       -5.6950393340453154     
 H   -3.2423322715265499        4.5315575535909716       -5.0660837309462661     
 O    5.4993211303879264       -3.7661598178652014       -9.5055962712604618     
 H    5.8651980618354145       -2.8449252894258166       -9.8370681380514213     
 H    4.5915652203044885       -3.7770574112865063       -10.053340133857375     
 O   -4.4196415831659728       -2.0437034168089099       -19.960053444854665     
 H   -4.2782411220196970       -3.0339963393540188       -20.222137447681984     
 H   -3.6493898807186653       -1.4245954370331333       -20.387212833453592     
 O    2.4592661722853251        3.4446935052076526       -20.582381425534617     
 H    3.2145426844589053        3.7991273930253442       -19.923537509888980     
 H    2.8993645683521834        3.2722734991630205       -21.483087322214548     
 O   0.82998062035652964       -4.7929099782360680       -10.397128896421162     
 H    1.0173530759145208       -5.0788210402714355       -9.4240408357798167     
 H    1.7179167696404818E-002  -4.2054847885044353       -10.235036950995150     
 O    5.3187188074549923        2.2939588824429791       -18.643856022662149     
 H    5.9743127004067844        1.5280491703400898       -18.549145676225042     
 H    4.3785342468186457        1.9383436869350277       -18.722377343786274     
 O   -2.5563509896989274       -1.3035839925861907       -2.3774458697178318     
 H   -1.9146020412574956      -0.79382285544846809       -3.0796410227099926     
 H   -3.4991491127018151       -1.2685902274641094       -2.6621705698795921     
 O    3.4272533500016849        3.1575251460714924       -1.0329447718128844     
 H    3.4870144105025105        4.1953789304968723      -0.83107189764075429     
 H    2.4313290907843736        2.9165900949605685       -1.1675404159084906     
 O  -0.86838675479936001        4.6314737854269410      -0.46346559310665647     
 H   -1.4208598332183726        5.2289793775333351        8.0681016507449854E-002