&CONTROL
  title = "1H2O-SCAN",
  calculation = 'relax',
!  restart_mode = "restart",
  restart_mode = "from_scratch",
  prefix = "H2O",
  pseudo_dir = '../../../UPF',
  outdir = './out/',
  nstep  = 100000,
  dt = 1.D0,
  tprnfor=.TRUE.,
  forc_conv_thr = 1.D-7
  etot_conv_thr = 1.D-8
  tstress=.TRUE.
!  max_seconds = 40000,
/
&SYSTEM
  ibrav     =  1,
  celldm(1) =  30; 
!  celldm(3) =  1; 
  nat       =  3,
  ntyp      =  2,
  ecutwfc   =  250,
  tot_charge =  0,
  nspin = 1,
  input_dft = 'scan',
/
&ELECTRONS
 electron_maxstep      = 500,
 conv_thr = 1.D-12
/
&IONS
 ion_dynamics     = "bfgs",
/
ATOMIC_SPECIES
O     15.9994 O_HSCV_PBE-1.0.UPF 
H     2.01588 H_HSCV_PBE-1.0.UPF 
ATOMIC_POSITIONS angstrom
O        6.171193500   6.842289282   6.107217689
H        5.292341143   6.576978444   6.401755944
H        6.767845357   6.343662275   6.677126367

K_POINTS {gamma}

